(set-info :smt-lib-version 2.6)
(set-info :category "crafted")
(set-logic QF_FF)
(define-sort FF0 () (_ FiniteField 52435875175126190479447740508185965837690552500527637822603658699938581184513))
(declare-fun e () Bool)
(declare-fun d () Bool)
(declare-fun h () Bool)
(declare-fun g () Bool)
(declare-fun f () Bool)
(declare-fun c () Bool)
(declare-fun b () Bool)
(declare-fun a () Bool)
(declare-fun out () FF0)
(declare-fun _15 () FF0)
(declare-fun _8 () FF0)
(declare-fun _14 () FF0)
(declare-fun _7 () FF0)
(declare-fun _13 () FF0)
(declare-fun _6 () FF0)
(declare-fun _12 () FF0)
(declare-fun _5 () FF0)
(declare-fun _11 () FF0)
(declare-fun _2 () FF0)
(declare-fun _10 () FF0)
(declare-fun _1 () FF0)
(declare-fun _0 () FF0)
(declare-fun _4 () FF0)
(declare-fun _3 () FF0)
(assert 
  (let ((let0 e))
  (let ((let1 d))
  (let ((let2 (= let1 let0)))
  (let ((let3 h))
  (let ((let4 g))
  (let ((let5 f))
  (let ((let6 c))
  (let ((let7 b))
  (let ((let8 a))
  (let ((let9 (and let8 let7 let6 let5 let4 let3 let2)))
  (let ((let10 out))
  (let ((let11 (as ff1 FF0)))
  (let ((let12 (= let11 let10)))
  (let ((let13 (= let12 let9)))
  (let ((let14 (as ff0 FF0)))
  (let ((let15 (= let14 let10)))
  (let ((let16 (or let12 let15)))
  (let ((let17 (and let16 let13)))
  (let ((let18 _15))
  (let ((let19 (as ff52435875175126190479447740508185965837690552500527637822603658699938581184512 FF0)))
  (let ((let20 _8))
  (let ((let21 (ff.mul let20 let19)))
  (let ((let22 (ff.add let21 let11)))
  (let ((let23 _14))
  (let ((let24 (ff.mul let23 let22)))
  (let ((let25 (= let24 let18)))
  (let ((let26 _7))
  (let ((let27 _13))
  (let ((let28 (ff.mul let27 let26)))
  (let ((let29 (= let28 let23)))
  (let ((let30 _6))
  (let ((let31 _12))
  (let ((let32 (ff.mul let31 let30)))
  (let ((let33 (= let32 let27)))
  (let ((let34 _5))
  (let ((let35 _11))
  (let ((let36 (ff.mul let35 let34)))
  (let ((let37 (= let36 let31)))
  (let ((let38 _2))
  (let ((let39 _10))
  (let ((let40 (ff.mul let39 let38)))
  (let ((let41 (= let40 let35)))
  (let ((let42 _1))
  (let ((let43 _0))
  (let ((let44 (ff.mul let43 let42)))
  (let ((let45 (= let44 let39)))
  (let ((let46 _4))
  (let ((let47 (ff.mul let46 let19)))
  (let ((let48 _3))
  (let ((let49 (ff.add let48 let47)))
  (let ((let50 (ff.mul let49 let49)))
  (let ((let51 (= let50 let20)))
  (let ((let52 (ff.mul let26 let26)))
  (let ((let53 (= let52 let26)))
  (let ((let54 (ff.mul let30 let30)))
  (let ((let55 (= let54 let30)))
  (let ((let56 (ff.mul let34 let34)))
  (let ((let57 (= let56 let34)))
  (let ((let58 (ff.mul let46 let46)))
  (let ((let59 (= let58 let46)))
  (let ((let60 (ff.mul let48 let48)))
  (let ((let61 (= let60 let48)))
  (let ((let62 (ff.mul let38 let38)))
  (let ((let63 (= let62 let38)))
  (let ((let64 (ff.mul let42 let42)))
  (let ((let65 (= let64 let42)))
  (let ((let66 (ff.mul let43 let43)))
  (let ((let67 (= let66 let43)))
  (let ((let68 (and let67 let65 let63 let61 let59 let57 let55 let53 let51 let45 let41 let37 let33 let29 let25)))
  (let ((let69 (ite let1 let11 let14)))
  (let ((let70 (= let48 let69)))
  (let ((let71 (ite let8 let11 let14)))
  (let ((let72 (= let43 let71)))
  (let ((let73 (ite let4 let11 let14)))
  (let ((let74 (= let30 let73)))
  (let ((let75 (ite let5 let11 let14)))
  (let ((let76 (= let34 let75)))
  (let ((let77 (ite let0 let11 let14)))
  (let ((let78 (= let46 let77)))
  (let ((let79 (ite let7 let11 let14)))
  (let ((let80 (= let42 let79)))
  (let ((let81 (ite let3 let11 let14)))
  (let ((let82 (= let26 let81)))
  (let ((let83 (ite let6 let11 let14)))
  (let ((let84 (= let38 let83)))
  (let ((let85 (and let84 let82 let80 let78 let76 let74 let72 let70)))
  (let ((let86 (and let85 let68)))
  (let ((let87 (=> let86 let17)))
  (let ((let88 (not let87)))
  let88
)))))))))))))))))))))))))))))))))))))))))))))))))))))))))))))))))))))))))))))))))))))))))
)
(check-sat)
